(declare-const delta_iter Int)
(declare-const delta_k Int)
(declare-const delta_out_l Int)
(declare-const delta_i Int)
(declare-const delta_j Int)
(assert (exists
         ((|out_l'?1| Int) (|iter'?2| Int) (tr?3 Int) (|j'?4| Int)
            (|k'?5| Int) (|S1,0?6| Real) (|i'?7| Int) (KSUM1?8 Int)
            (|K1,0?9| Int) (K?10 Int) (|j'?11| Int) (|S1,0?12| Real)
            (|i'?13| Int) (KSUM1?14 Int) (|K1,0?15| Int) (K?16 Int)
            (|i'?17| Int) (|j'?18| Int) (|k'?19| Int) (out_l?20 Int)
            (k?21 Int) (j?22 Int) (length?23 Int) (i?24 Int) (tsteps?25 Int)
            (iter?26 Int))
         (and (<= (- iter?26) 0) (< (+ (- tsteps?25) iter?26) 0)
                (<= (- K?16) 0) (<= (- |K1,0?15|) 0)
                (= (+ |K1,0?15| (- K?16)) 0) (<= (+ KSUM1?14 (- K?16)) 0)
                (= (+ (- |S1,0?12|) |i'?13| (- |K1,0?15|)) 0)
                (= (+ (- KSUM1?14) |K1,0?15|) 0) (= |S1,0?12| 0)
                (or (and (= K?16 0) (= (+ (- |j'?11|) j?22) 0)
                           (= (- |i'?13|) 0))
                      (and (<= (+ (- K?16) 1) 0) (<= (+ (- length?23) 1) 0)
                             (= (+ (- length?23) |j'?11|) 0)
                             (<= (+ (- |i'?13|) 1) 0)
                             (<= (+ (- length?23) |i'?13|) 0)))
                (= (+ |i'?13| (- K?16)) 0) (<= (- K?16) 0) (<= (- |i'?13|) 0)
                (< (+ length?23 (- |i'?13|) -1) 0) (<= (- K?10) 0)
                (<= (- |K1,0?9|) 0) (= (+ |K1,0?9| (- K?10)) 0)
                (<= (+ KSUM1?8 (- K?10)) 0)
                (= (+ (- |S1,0?6|) |i'?7| (- |K1,0?9|)) 0)
                (= (+ (- KSUM1?8) |K1,0?9|) 0) (= |S1,0?6| 0)
                (or (and (= K?10 0) (= (+ (- |k'?5|) k?21) 0)
                           (= (+ (- |j'?4|) |j'?11|) 0) (= (- |i'?7|) 0))
                      (and (<= (+ (- K?10) 1) 0) (<= (+ (- length?23) 2) 0)
                             (= (+ (- |j'?4|) length?23) 0)
                             (<= (+ |j'?4| (- |k'?5|) -1) 0)
                             (<= (+ (- |j'?4|) |k'?5| (- |i'?7|) 2) 0)
                             (<= (+ (- |j'?4|) |i'?7| 1) 0)))
                (= (+ |i'?7| (- K?10)) 0) (<= (- K?10) 0) (<= (- |i'?7|) 0)
                (< (+ (- |i'?7|) length?23 -2) 0)
                (= (+ (- tr?3) (- out_l?20) |out_l'?1|) 0)
                (= (+ |k'?19| (- |k'?5|)) 0) (= (+ |j'?18| (- |j'?4|)) 0)
                (= (+ |i'?17| (- |i'?7|)) 0)
                (= (+ |iter'?2| (- iter?26) -1) 0)
                (= delta_iter (+ |iter'?2| (- iter?26)))
                (= delta_i (+ |i'?17| (- i?24)))
                (= delta_j (+ |j'?18| (- j?22)))
                (= delta_k (+ |k'?19| (- k?21)))
                (= delta_out_l (+ |out_l'?1| (- out_l?20))))))
(check-sat)
